c *********************************
c * Circuit generated by BenCGen
c *
c * CarrySkipAdder_104_104_104_InOut_G4T
c *
c * Ports with 1 gate(s): 28
c * Ports with 2 gate(s): 573
c * Ports with 4 gate(s): 26
c * Total gates: 627
c *********************************
p cnf 835 2113
1 315 0
-1 -315 0
1 -314 0
315 -314 0
-1 -315 314 0
1 105 -318 0
-1 105 318 0
1 -105 318 0
-1 -105 -318 0
318 314 -209 0
-318 314 209 0
318 -314 209 0
-318 -314 -209 0
314 -319 0
318 -319 0
-314 -318 319 0
105 -320 0
1 -320 0
-105 -1 320 0
-319 317 0
-320 317 0
319 320 -317 0
2 106 -322 0
-2 106 322 0
2 -106 322 0
-2 -106 -322 0
322 317 -210 0
-322 317 210 0
322 -317 210 0
-322 -317 -210 0
317 -323 0
322 -323 0
-317 -322 323 0
106 -324 0
2 -324 0
-106 -2 324 0
-323 321 0
-324 321 0
323 324 -321 0
3 107 -326 0
-3 107 326 0
3 -107 326 0
-3 -107 -326 0
326 321 -211 0
-326 321 211 0
326 -321 211 0
-326 -321 -211 0
321 -327 0
326 -327 0
-321 -326 327 0
107 -328 0
3 -328 0
-107 -3 328 0
-327 325 0
-328 325 0
327 328 -325 0
4 108 -329 0
-4 108 329 0
4 -108 329 0
-4 -108 -329 0
329 325 -212 0
-329 325 212 0
329 -325 212 0
-329 -325 -212 0
325 -330 0
329 -330 0
-325 -329 330 0
108 -331 0
4 -331 0
-108 -4 331 0
-330 316 0
-331 316 0
330 331 -316 0
318 -332 0
322 -332 0
326 -332 0
329 -332 0
-318 -322 -326 -329 332 0
331 -333 0
-331 333 0
314 -334 0
332 -334 0
-314 -332 334 0
-334 335 0
-316 335 0
334 316 -335 0
5 109 -338 0
-5 109 338 0
5 -109 338 0
-5 -109 -338 0
338 335 -213 0
-338 335 213 0
338 -335 213 0
-338 -335 -213 0
335 -339 0
338 -339 0
-335 -338 339 0
109 -340 0
5 -340 0
-109 -5 340 0
-339 337 0
-340 337 0
339 340 -337 0
6 110 -342 0
-6 110 342 0
6 -110 342 0
-6 -110 -342 0
342 337 -214 0
-342 337 214 0
342 -337 214 0
-342 -337 -214 0
337 -343 0
342 -343 0
-337 -342 343 0
110 -344 0
6 -344 0
-110 -6 344 0
-343 341 0
-344 341 0
343 344 -341 0
7 111 -346 0
-7 111 346 0
7 -111 346 0
-7 -111 -346 0
346 341 -215 0
-346 341 215 0
346 -341 215 0
-346 -341 -215 0
341 -347 0
346 -347 0
-341 -346 347 0
111 -348 0
7 -348 0
-111 -7 348 0
-347 345 0
-348 345 0
347 348 -345 0
8 112 -349 0
-8 112 349 0
8 -112 349 0
-8 -112 -349 0
349 345 -216 0
-349 345 216 0
349 -345 216 0
-349 -345 -216 0
345 -350 0
349 -350 0
-345 -349 350 0
112 -351 0
8 -351 0
-112 -8 351 0
-350 336 0
-351 336 0
350 351 -336 0
338 -352 0
342 -352 0
346 -352 0
349 -352 0
-338 -342 -346 -349 352 0
351 -353 0
-351 353 0
335 -354 0
352 -354 0
-335 -352 354 0
-354 355 0
-336 355 0
354 336 -355 0
9 113 -358 0
-9 113 358 0
9 -113 358 0
-9 -113 -358 0
358 355 -217 0
-358 355 217 0
358 -355 217 0
-358 -355 -217 0
355 -359 0
358 -359 0
-355 -358 359 0
113 -360 0
9 -360 0
-113 -9 360 0
-359 357 0
-360 357 0
359 360 -357 0
10 114 -362 0
-10 114 362 0
10 -114 362 0
-10 -114 -362 0
362 357 -218 0
-362 357 218 0
362 -357 218 0
-362 -357 -218 0
357 -363 0
362 -363 0
-357 -362 363 0
114 -364 0
10 -364 0
-114 -10 364 0
-363 361 0
-364 361 0
363 364 -361 0
11 115 -366 0
-11 115 366 0
11 -115 366 0
-11 -115 -366 0
366 361 -219 0
-366 361 219 0
366 -361 219 0
-366 -361 -219 0
361 -367 0
366 -367 0
-361 -366 367 0
115 -368 0
11 -368 0
-115 -11 368 0
-367 365 0
-368 365 0
367 368 -365 0
12 116 -369 0
-12 116 369 0
12 -116 369 0
-12 -116 -369 0
369 365 -220 0
-369 365 220 0
369 -365 220 0
-369 -365 -220 0
365 -370 0
369 -370 0
-365 -369 370 0
116 -371 0
12 -371 0
-116 -12 371 0
-370 356 0
-371 356 0
370 371 -356 0
358 -372 0
362 -372 0
366 -372 0
369 -372 0
-358 -362 -366 -369 372 0
371 -373 0
-371 373 0
355 -374 0
372 -374 0
-355 -372 374 0
-374 375 0
-356 375 0
374 356 -375 0
13 117 -378 0
-13 117 378 0
13 -117 378 0
-13 -117 -378 0
378 375 -221 0
-378 375 221 0
378 -375 221 0
-378 -375 -221 0
375 -379 0
378 -379 0
-375 -378 379 0
117 -380 0
13 -380 0
-117 -13 380 0
-379 377 0
-380 377 0
379 380 -377 0
14 118 -382 0
-14 118 382 0
14 -118 382 0
-14 -118 -382 0
382 377 -222 0
-382 377 222 0
382 -377 222 0
-382 -377 -222 0
377 -383 0
382 -383 0
-377 -382 383 0
118 -384 0
14 -384 0
-118 -14 384 0
-383 381 0
-384 381 0
383 384 -381 0
15 119 -386 0
-15 119 386 0
15 -119 386 0
-15 -119 -386 0
386 381 -223 0
-386 381 223 0
386 -381 223 0
-386 -381 -223 0
381 -387 0
386 -387 0
-381 -386 387 0
119 -388 0
15 -388 0
-119 -15 388 0
-387 385 0
-388 385 0
387 388 -385 0
16 120 -389 0
-16 120 389 0
16 -120 389 0
-16 -120 -389 0
389 385 -224 0
-389 385 224 0
389 -385 224 0
-389 -385 -224 0
385 -390 0
389 -390 0
-385 -389 390 0
120 -391 0
16 -391 0
-120 -16 391 0
-390 376 0
-391 376 0
390 391 -376 0
378 -392 0
382 -392 0
386 -392 0
389 -392 0
-378 -382 -386 -389 392 0
391 -393 0
-391 393 0
375 -394 0
392 -394 0
-375 -392 394 0
-394 395 0
-376 395 0
394 376 -395 0
17 121 -398 0
-17 121 398 0
17 -121 398 0
-17 -121 -398 0
398 395 -225 0
-398 395 225 0
398 -395 225 0
-398 -395 -225 0
395 -399 0
398 -399 0
-395 -398 399 0
121 -400 0
17 -400 0
-121 -17 400 0
-399 397 0
-400 397 0
399 400 -397 0
18 122 -402 0
-18 122 402 0
18 -122 402 0
-18 -122 -402 0
402 397 -226 0
-402 397 226 0
402 -397 226 0
-402 -397 -226 0
397 -403 0
402 -403 0
-397 -402 403 0
122 -404 0
18 -404 0
-122 -18 404 0
-403 401 0
-404 401 0
403 404 -401 0
19 123 -406 0
-19 123 406 0
19 -123 406 0
-19 -123 -406 0
406 401 -227 0
-406 401 227 0
406 -401 227 0
-406 -401 -227 0
401 -407 0
406 -407 0
-401 -406 407 0
123 -408 0
19 -408 0
-123 -19 408 0
-407 405 0
-408 405 0
407 408 -405 0
20 124 -409 0
-20 124 409 0
20 -124 409 0
-20 -124 -409 0
409 405 -228 0
-409 405 228 0
409 -405 228 0
-409 -405 -228 0
405 -410 0
409 -410 0
-405 -409 410 0
124 -411 0
20 -411 0
-124 -20 411 0
-410 396 0
-411 396 0
410 411 -396 0
398 -412 0
402 -412 0
406 -412 0
409 -412 0
-398 -402 -406 -409 412 0
411 -413 0
-411 413 0
395 -414 0
412 -414 0
-395 -412 414 0
-414 415 0
-396 415 0
414 396 -415 0
21 125 -418 0
-21 125 418 0
21 -125 418 0
-21 -125 -418 0
418 415 -229 0
-418 415 229 0
418 -415 229 0
-418 -415 -229 0
415 -419 0
418 -419 0
-415 -418 419 0
125 -420 0
21 -420 0
-125 -21 420 0
-419 417 0
-420 417 0
419 420 -417 0
22 126 -422 0
-22 126 422 0
22 -126 422 0
-22 -126 -422 0
422 417 -230 0
-422 417 230 0
422 -417 230 0
-422 -417 -230 0
417 -423 0
422 -423 0
-417 -422 423 0
126 -424 0
22 -424 0
-126 -22 424 0
-423 421 0
-424 421 0
423 424 -421 0
23 127 -426 0
-23 127 426 0
23 -127 426 0
-23 -127 -426 0
426 421 -231 0
-426 421 231 0
426 -421 231 0
-426 -421 -231 0
421 -427 0
426 -427 0
-421 -426 427 0
127 -428 0
23 -428 0
-127 -23 428 0
-427 425 0
-428 425 0
427 428 -425 0
24 128 -429 0
-24 128 429 0
24 -128 429 0
-24 -128 -429 0
429 425 -232 0
-429 425 232 0
429 -425 232 0
-429 -425 -232 0
425 -430 0
429 -430 0
-425 -429 430 0
128 -431 0
24 -431 0
-128 -24 431 0
-430 416 0
-431 416 0
430 431 -416 0
418 -432 0
422 -432 0
426 -432 0
429 -432 0
-418 -422 -426 -429 432 0
431 -433 0
-431 433 0
415 -434 0
432 -434 0
-415 -432 434 0
-434 435 0
-416 435 0
434 416 -435 0
25 129 -438 0
-25 129 438 0
25 -129 438 0
-25 -129 -438 0
438 435 -233 0
-438 435 233 0
438 -435 233 0
-438 -435 -233 0
435 -439 0
438 -439 0
-435 -438 439 0
129 -440 0
25 -440 0
-129 -25 440 0
-439 437 0
-440 437 0
439 440 -437 0
26 130 -442 0
-26 130 442 0
26 -130 442 0
-26 -130 -442 0
442 437 -234 0
-442 437 234 0
442 -437 234 0
-442 -437 -234 0
437 -443 0
442 -443 0
-437 -442 443 0
130 -444 0
26 -444 0
-130 -26 444 0
-443 441 0
-444 441 0
443 444 -441 0
27 131 -446 0
-27 131 446 0
27 -131 446 0
-27 -131 -446 0
446 441 -235 0
-446 441 235 0
446 -441 235 0
-446 -441 -235 0
441 -447 0
446 -447 0
-441 -446 447 0
131 -448 0
27 -448 0
-131 -27 448 0
-447 445 0
-448 445 0
447 448 -445 0
28 132 -449 0
-28 132 449 0
28 -132 449 0
-28 -132 -449 0
449 445 -236 0
-449 445 236 0
449 -445 236 0
-449 -445 -236 0
445 -450 0
449 -450 0
-445 -449 450 0
132 -451 0
28 -451 0
-132 -28 451 0
-450 436 0
-451 436 0
450 451 -436 0
438 -452 0
442 -452 0
446 -452 0
449 -452 0
-438 -442 -446 -449 452 0
451 -453 0
-451 453 0
435 -454 0
452 -454 0
-435 -452 454 0
-454 455 0
-436 455 0
454 436 -455 0
29 133 -458 0
-29 133 458 0
29 -133 458 0
-29 -133 -458 0
458 455 -237 0
-458 455 237 0
458 -455 237 0
-458 -455 -237 0
455 -459 0
458 -459 0
-455 -458 459 0
133 -460 0
29 -460 0
-133 -29 460 0
-459 457 0
-460 457 0
459 460 -457 0
30 134 -462 0
-30 134 462 0
30 -134 462 0
-30 -134 -462 0
462 457 -238 0
-462 457 238 0
462 -457 238 0
-462 -457 -238 0
457 -463 0
462 -463 0
-457 -462 463 0
134 -464 0
30 -464 0
-134 -30 464 0
-463 461 0
-464 461 0
463 464 -461 0
31 135 -466 0
-31 135 466 0
31 -135 466 0
-31 -135 -466 0
466 461 -239 0
-466 461 239 0
466 -461 239 0
-466 -461 -239 0
461 -467 0
466 -467 0
-461 -466 467 0
135 -468 0
31 -468 0
-135 -31 468 0
-467 465 0
-468 465 0
467 468 -465 0
32 136 -469 0
-32 136 469 0
32 -136 469 0
-32 -136 -469 0
469 465 -240 0
-469 465 240 0
469 -465 240 0
-469 -465 -240 0
465 -470 0
469 -470 0
-465 -469 470 0
136 -471 0
32 -471 0
-136 -32 471 0
-470 456 0
-471 456 0
470 471 -456 0
458 -472 0
462 -472 0
466 -472 0
469 -472 0
-458 -462 -466 -469 472 0
471 -473 0
-471 473 0
455 -474 0
472 -474 0
-455 -472 474 0
-474 475 0
-456 475 0
474 456 -475 0
33 137 -478 0
-33 137 478 0
33 -137 478 0
-33 -137 -478 0
478 475 -241 0
-478 475 241 0
478 -475 241 0
-478 -475 -241 0
475 -479 0
478 -479 0
-475 -478 479 0
137 -480 0
33 -480 0
-137 -33 480 0
-479 477 0
-480 477 0
479 480 -477 0
34 138 -482 0
-34 138 482 0
34 -138 482 0
-34 -138 -482 0
482 477 -242 0
-482 477 242 0
482 -477 242 0
-482 -477 -242 0
477 -483 0
482 -483 0
-477 -482 483 0
138 -484 0
34 -484 0
-138 -34 484 0
-483 481 0
-484 481 0
483 484 -481 0
35 139 -486 0
-35 139 486 0
35 -139 486 0
-35 -139 -486 0
486 481 -243 0
-486 481 243 0
486 -481 243 0
-486 -481 -243 0
481 -487 0
486 -487 0
-481 -486 487 0
139 -488 0
35 -488 0
-139 -35 488 0
-487 485 0
-488 485 0
487 488 -485 0
36 140 -489 0
-36 140 489 0
36 -140 489 0
-36 -140 -489 0
489 485 -244 0
-489 485 244 0
489 -485 244 0
-489 -485 -244 0
485 -490 0
489 -490 0
-485 -489 490 0
140 -491 0
36 -491 0
-140 -36 491 0
-490 476 0
-491 476 0
490 491 -476 0
478 -492 0
482 -492 0
486 -492 0
489 -492 0
-478 -482 -486 -489 492 0
491 -493 0
-491 493 0
475 -494 0
492 -494 0
-475 -492 494 0
-494 495 0
-476 495 0
494 476 -495 0
37 141 -498 0
-37 141 498 0
37 -141 498 0
-37 -141 -498 0
498 495 -245 0
-498 495 245 0
498 -495 245 0
-498 -495 -245 0
495 -499 0
498 -499 0
-495 -498 499 0
141 -500 0
37 -500 0
-141 -37 500 0
-499 497 0
-500 497 0
499 500 -497 0
38 142 -502 0
-38 142 502 0
38 -142 502 0
-38 -142 -502 0
502 497 -246 0
-502 497 246 0
502 -497 246 0
-502 -497 -246 0
497 -503 0
502 -503 0
-497 -502 503 0
142 -504 0
38 -504 0
-142 -38 504 0
-503 501 0
-504 501 0
503 504 -501 0
39 143 -506 0
-39 143 506 0
39 -143 506 0
-39 -143 -506 0
506 501 -247 0
-506 501 247 0
506 -501 247 0
-506 -501 -247 0
501 -507 0
506 -507 0
-501 -506 507 0
143 -508 0
39 -508 0
-143 -39 508 0
-507 505 0
-508 505 0
507 508 -505 0
40 144 -509 0
-40 144 509 0
40 -144 509 0
-40 -144 -509 0
509 505 -248 0
-509 505 248 0
509 -505 248 0
-509 -505 -248 0
505 -510 0
509 -510 0
-505 -509 510 0
144 -511 0
40 -511 0
-144 -40 511 0
-510 496 0
-511 496 0
510 511 -496 0
498 -512 0
502 -512 0
506 -512 0
509 -512 0
-498 -502 -506 -509 512 0
511 -513 0
-511 513 0
495 -514 0
512 -514 0
-495 -512 514 0
-514 515 0
-496 515 0
514 496 -515 0
41 145 -518 0
-41 145 518 0
41 -145 518 0
-41 -145 -518 0
518 515 -249 0
-518 515 249 0
518 -515 249 0
-518 -515 -249 0
515 -519 0
518 -519 0
-515 -518 519 0
145 -520 0
41 -520 0
-145 -41 520 0
-519 517 0
-520 517 0
519 520 -517 0
42 146 -522 0
-42 146 522 0
42 -146 522 0
-42 -146 -522 0
522 517 -250 0
-522 517 250 0
522 -517 250 0
-522 -517 -250 0
517 -523 0
522 -523 0
-517 -522 523 0
146 -524 0
42 -524 0
-146 -42 524 0
-523 521 0
-524 521 0
523 524 -521 0
43 147 -526 0
-43 147 526 0
43 -147 526 0
-43 -147 -526 0
526 521 -251 0
-526 521 251 0
526 -521 251 0
-526 -521 -251 0
521 -527 0
526 -527 0
-521 -526 527 0
147 -528 0
43 -528 0
-147 -43 528 0
-527 525 0
-528 525 0
527 528 -525 0
44 148 -529 0
-44 148 529 0
44 -148 529 0
-44 -148 -529 0
529 525 -252 0
-529 525 252 0
529 -525 252 0
-529 -525 -252 0
525 -530 0
529 -530 0
-525 -529 530 0
148 -531 0
44 -531 0
-148 -44 531 0
-530 516 0
-531 516 0
530 531 -516 0
518 -532 0
522 -532 0
526 -532 0
529 -532 0
-518 -522 -526 -529 532 0
531 -533 0
-531 533 0
515 -534 0
532 -534 0
-515 -532 534 0
-534 535 0
-516 535 0
534 516 -535 0
45 149 -538 0
-45 149 538 0
45 -149 538 0
-45 -149 -538 0
538 535 -253 0
-538 535 253 0
538 -535 253 0
-538 -535 -253 0
535 -539 0
538 -539 0
-535 -538 539 0
149 -540 0
45 -540 0
-149 -45 540 0
-539 537 0
-540 537 0
539 540 -537 0
46 150 -542 0
-46 150 542 0
46 -150 542 0
-46 -150 -542 0
542 537 -254 0
-542 537 254 0
542 -537 254 0
-542 -537 -254 0
537 -543 0
542 -543 0
-537 -542 543 0
150 -544 0
46 -544 0
-150 -46 544 0
-543 541 0
-544 541 0
543 544 -541 0
47 151 -546 0
-47 151 546 0
47 -151 546 0
-47 -151 -546 0
546 541 -255 0
-546 541 255 0
546 -541 255 0
-546 -541 -255 0
541 -547 0
546 -547 0
-541 -546 547 0
151 -548 0
47 -548 0
-151 -47 548 0
-547 545 0
-548 545 0
547 548 -545 0
48 152 -549 0
-48 152 549 0
48 -152 549 0
-48 -152 -549 0
549 545 -256 0
-549 545 256 0
549 -545 256 0
-549 -545 -256 0
545 -550 0
549 -550 0
-545 -549 550 0
152 -551 0
48 -551 0
-152 -48 551 0
-550 536 0
-551 536 0
550 551 -536 0
538 -552 0
542 -552 0
546 -552 0
549 -552 0
-538 -542 -546 -549 552 0
551 -553 0
-551 553 0
535 -554 0
552 -554 0
-535 -552 554 0
-554 555 0
-536 555 0
554 536 -555 0
49 153 -558 0
-49 153 558 0
49 -153 558 0
-49 -153 -558 0
558 555 -257 0
-558 555 257 0
558 -555 257 0
-558 -555 -257 0
555 -559 0
558 -559 0
-555 -558 559 0
153 -560 0
49 -560 0
-153 -49 560 0
-559 557 0
-560 557 0
559 560 -557 0
50 154 -562 0
-50 154 562 0
50 -154 562 0
-50 -154 -562 0
562 557 -258 0
-562 557 258 0
562 -557 258 0
-562 -557 -258 0
557 -563 0
562 -563 0
-557 -562 563 0
154 -564 0
50 -564 0
-154 -50 564 0
-563 561 0
-564 561 0
563 564 -561 0
51 155 -566 0
-51 155 566 0
51 -155 566 0
-51 -155 -566 0
566 561 -259 0
-566 561 259 0
566 -561 259 0
-566 -561 -259 0
561 -567 0
566 -567 0
-561 -566 567 0
155 -568 0
51 -568 0
-155 -51 568 0
-567 565 0
-568 565 0
567 568 -565 0
52 156 -569 0
-52 156 569 0
52 -156 569 0
-52 -156 -569 0
569 565 -260 0
-569 565 260 0
569 -565 260 0
-569 -565 -260 0
565 -570 0
569 -570 0
-565 -569 570 0
156 -571 0
52 -571 0
-156 -52 571 0
-570 556 0
-571 556 0
570 571 -556 0
558 -572 0
562 -572 0
566 -572 0
569 -572 0
-558 -562 -566 -569 572 0
571 -573 0
-571 573 0
555 -574 0
572 -574 0
-555 -572 574 0
-574 575 0
-556 575 0
574 556 -575 0
53 157 -578 0
-53 157 578 0
53 -157 578 0
-53 -157 -578 0
578 575 -261 0
-578 575 261 0
578 -575 261 0
-578 -575 -261 0
575 -579 0
578 -579 0
-575 -578 579 0
157 -580 0
53 -580 0
-157 -53 580 0
-579 577 0
-580 577 0
579 580 -577 0
54 158 -582 0
-54 158 582 0
54 -158 582 0
-54 -158 -582 0
582 577 -262 0
-582 577 262 0
582 -577 262 0
-582 -577 -262 0
577 -583 0
582 -583 0
-577 -582 583 0
158 -584 0
54 -584 0
-158 -54 584 0
-583 581 0
-584 581 0
583 584 -581 0
55 159 -586 0
-55 159 586 0
55 -159 586 0
-55 -159 -586 0
586 581 -263 0
-586 581 263 0
586 -581 263 0
-586 -581 -263 0
581 -587 0
586 -587 0
-581 -586 587 0
159 -588 0
55 -588 0
-159 -55 588 0
-587 585 0
-588 585 0
587 588 -585 0
56 160 -589 0
-56 160 589 0
56 -160 589 0
-56 -160 -589 0
589 585 -264 0
-589 585 264 0
589 -585 264 0
-589 -585 -264 0
585 -590 0
589 -590 0
-585 -589 590 0
160 -591 0
56 -591 0
-160 -56 591 0
-590 576 0
-591 576 0
590 591 -576 0
578 -592 0
582 -592 0
586 -592 0
589 -592 0
-578 -582 -586 -589 592 0
591 -593 0
-591 593 0
575 -594 0
592 -594 0
-575 -592 594 0
-594 595 0
-576 595 0
594 576 -595 0
57 161 -598 0
-57 161 598 0
57 -161 598 0
-57 -161 -598 0
598 595 -265 0
-598 595 265 0
598 -595 265 0
-598 -595 -265 0
595 -599 0
598 -599 0
-595 -598 599 0
161 -600 0
57 -600 0
-161 -57 600 0
-599 597 0
-600 597 0
599 600 -597 0
58 162 -602 0
-58 162 602 0
58 -162 602 0
-58 -162 -602 0
602 597 -266 0
-602 597 266 0
602 -597 266 0
-602 -597 -266 0
597 -603 0
602 -603 0
-597 -602 603 0
162 -604 0
58 -604 0
-162 -58 604 0
-603 601 0
-604 601 0
603 604 -601 0
59 163 -606 0
-59 163 606 0
59 -163 606 0
-59 -163 -606 0
606 601 -267 0
-606 601 267 0
606 -601 267 0
-606 -601 -267 0
601 -607 0
606 -607 0
-601 -606 607 0
163 -608 0
59 -608 0
-163 -59 608 0
-607 605 0
-608 605 0
607 608 -605 0
60 164 -609 0
-60 164 609 0
60 -164 609 0
-60 -164 -609 0
609 605 -268 0
-609 605 268 0
609 -605 268 0
-609 -605 -268 0
605 -610 0
609 -610 0
-605 -609 610 0
164 -611 0
60 -611 0
-164 -60 611 0
-610 596 0
-611 596 0
610 611 -596 0
598 -612 0
602 -612 0
606 -612 0
609 -612 0
-598 -602 -606 -609 612 0
611 -613 0
-611 613 0
595 -614 0
612 -614 0
-595 -612 614 0
-614 615 0
-596 615 0
614 596 -615 0
61 165 -618 0
-61 165 618 0
61 -165 618 0
-61 -165 -618 0
618 615 -269 0
-618 615 269 0
618 -615 269 0
-618 -615 -269 0
615 -619 0
618 -619 0
-615 -618 619 0
165 -620 0
61 -620 0
-165 -61 620 0
-619 617 0
-620 617 0
619 620 -617 0
62 166 -622 0
-62 166 622 0
62 -166 622 0
-62 -166 -622 0
622 617 -270 0
-622 617 270 0
622 -617 270 0
-622 -617 -270 0
617 -623 0
622 -623 0
-617 -622 623 0
166 -624 0
62 -624 0
-166 -62 624 0
-623 621 0
-624 621 0
623 624 -621 0
63 167 -626 0
-63 167 626 0
63 -167 626 0
-63 -167 -626 0
626 621 -271 0
-626 621 271 0
626 -621 271 0
-626 -621 -271 0
621 -627 0
626 -627 0
-621 -626 627 0
167 -628 0
63 -628 0
-167 -63 628 0
-627 625 0
-628 625 0
627 628 -625 0
64 168 -629 0
-64 168 629 0
64 -168 629 0
-64 -168 -629 0
629 625 -272 0
-629 625 272 0
629 -625 272 0
-629 -625 -272 0
625 -630 0
629 -630 0
-625 -629 630 0
168 -631 0
64 -631 0
-168 -64 631 0
-630 616 0
-631 616 0
630 631 -616 0
618 -632 0
622 -632 0
626 -632 0
629 -632 0
-618 -622 -626 -629 632 0
631 -633 0
-631 633 0
615 -634 0
632 -634 0
-615 -632 634 0
-634 635 0
-616 635 0
634 616 -635 0
65 169 -638 0
-65 169 638 0
65 -169 638 0
-65 -169 -638 0
638 635 -273 0
-638 635 273 0
638 -635 273 0
-638 -635 -273 0
635 -639 0
638 -639 0
-635 -638 639 0
169 -640 0
65 -640 0
-169 -65 640 0
-639 637 0
-640 637 0
639 640 -637 0
66 170 -642 0
-66 170 642 0
66 -170 642 0
-66 -170 -642 0
642 637 -274 0
-642 637 274 0
642 -637 274 0
-642 -637 -274 0
637 -643 0
642 -643 0
-637 -642 643 0
170 -644 0
66 -644 0
-170 -66 644 0
-643 641 0
-644 641 0
643 644 -641 0
67 171 -646 0
-67 171 646 0
67 -171 646 0
-67 -171 -646 0
646 641 -275 0
-646 641 275 0
646 -641 275 0
-646 -641 -275 0
641 -647 0
646 -647 0
-641 -646 647 0
171 -648 0
67 -648 0
-171 -67 648 0
-647 645 0
-648 645 0
647 648 -645 0
68 172 -649 0
-68 172 649 0
68 -172 649 0
-68 -172 -649 0
649 645 -276 0
-649 645 276 0
649 -645 276 0
-649 -645 -276 0
645 -650 0
649 -650 0
-645 -649 650 0
172 -651 0
68 -651 0
-172 -68 651 0
-650 636 0
-651 636 0
650 651 -636 0
638 -652 0
642 -652 0
646 -652 0
649 -652 0
-638 -642 -646 -649 652 0
651 -653 0
-651 653 0
635 -654 0
652 -654 0
-635 -652 654 0
-654 655 0
-636 655 0
654 636 -655 0
69 173 -658 0
-69 173 658 0
69 -173 658 0
-69 -173 -658 0
658 655 -277 0
-658 655 277 0
658 -655 277 0
-658 -655 -277 0
655 -659 0
658 -659 0
-655 -658 659 0
173 -660 0
69 -660 0
-173 -69 660 0
-659 657 0
-660 657 0
659 660 -657 0
70 174 -662 0
-70 174 662 0
70 -174 662 0
-70 -174 -662 0
662 657 -278 0
-662 657 278 0
662 -657 278 0
-662 -657 -278 0
657 -663 0
662 -663 0
-657 -662 663 0
174 -664 0
70 -664 0
-174 -70 664 0
-663 661 0
-664 661 0
663 664 -661 0
71 175 -666 0
-71 175 666 0
71 -175 666 0
-71 -175 -666 0
666 661 -279 0
-666 661 279 0
666 -661 279 0
-666 -661 -279 0
661 -667 0
666 -667 0
-661 -666 667 0
175 -668 0
71 -668 0
-175 -71 668 0
-667 665 0
-668 665 0
667 668 -665 0
72 176 -669 0
-72 176 669 0
72 -176 669 0
-72 -176 -669 0
669 665 -280 0
-669 665 280 0
669 -665 280 0
-669 -665 -280 0
665 -670 0
669 -670 0
-665 -669 670 0
176 -671 0
72 -671 0
-176 -72 671 0
-670 656 0
-671 656 0
670 671 -656 0
658 -672 0
662 -672 0
666 -672 0
669 -672 0
-658 -662 -666 -669 672 0
671 -673 0
-671 673 0
655 -674 0
672 -674 0
-655 -672 674 0
-674 675 0
-656 675 0
674 656 -675 0
73 177 -678 0
-73 177 678 0
73 -177 678 0
-73 -177 -678 0
678 675 -281 0
-678 675 281 0
678 -675 281 0
-678 -675 -281 0
675 -679 0
678 -679 0
-675 -678 679 0
177 -680 0
73 -680 0
-177 -73 680 0
-679 677 0
-680 677 0
679 680 -677 0
74 178 -682 0
-74 178 682 0
74 -178 682 0
-74 -178 -682 0
682 677 -282 0
-682 677 282 0
682 -677 282 0
-682 -677 -282 0
677 -683 0
682 -683 0
-677 -682 683 0
178 -684 0
74 -684 0
-178 -74 684 0
-683 681 0
-684 681 0
683 684 -681 0
75 179 -686 0
-75 179 686 0
75 -179 686 0
-75 -179 -686 0
686 681 -283 0
-686 681 283 0
686 -681 283 0
-686 -681 -283 0
681 -687 0
686 -687 0
-681 -686 687 0
179 -688 0
75 -688 0
-179 -75 688 0
-687 685 0
-688 685 0
687 688 -685 0
76 180 -689 0
-76 180 689 0
76 -180 689 0
-76 -180 -689 0
689 685 -284 0
-689 685 284 0
689 -685 284 0
-689 -685 -284 0
685 -690 0
689 -690 0
-685 -689 690 0
180 -691 0
76 -691 0
-180 -76 691 0
-690 676 0
-691 676 0
690 691 -676 0
678 -692 0
682 -692 0
686 -692 0
689 -692 0
-678 -682 -686 -689 692 0
691 -693 0
-691 693 0
675 -694 0
692 -694 0
-675 -692 694 0
-694 695 0
-676 695 0
694 676 -695 0
77 181 -698 0
-77 181 698 0
77 -181 698 0
-77 -181 -698 0
698 695 -285 0
-698 695 285 0
698 -695 285 0
-698 -695 -285 0
695 -699 0
698 -699 0
-695 -698 699 0
181 -700 0
77 -700 0
-181 -77 700 0
-699 697 0
-700 697 0
699 700 -697 0
78 182 -702 0
-78 182 702 0
78 -182 702 0
-78 -182 -702 0
702 697 -286 0
-702 697 286 0
702 -697 286 0
-702 -697 -286 0
697 -703 0
702 -703 0
-697 -702 703 0
182 -704 0
78 -704 0
-182 -78 704 0
-703 701 0
-704 701 0
703 704 -701 0
79 183 -706 0
-79 183 706 0
79 -183 706 0
-79 -183 -706 0
706 701 -287 0
-706 701 287 0
706 -701 287 0
-706 -701 -287 0
701 -707 0
706 -707 0
-701 -706 707 0
183 -708 0
79 -708 0
-183 -79 708 0
-707 705 0
-708 705 0
707 708 -705 0
80 184 -709 0
-80 184 709 0
80 -184 709 0
-80 -184 -709 0
709 705 -288 0
-709 705 288 0
709 -705 288 0
-709 -705 -288 0
705 -710 0
709 -710 0
-705 -709 710 0
184 -711 0
80 -711 0
-184 -80 711 0
-710 696 0
-711 696 0
710 711 -696 0
698 -712 0
702 -712 0
706 -712 0
709 -712 0
-698 -702 -706 -709 712 0
711 -713 0
-711 713 0
695 -714 0
712 -714 0
-695 -712 714 0
-714 715 0
-696 715 0
714 696 -715 0
81 185 -718 0
-81 185 718 0
81 -185 718 0
-81 -185 -718 0
718 715 -289 0
-718 715 289 0
718 -715 289 0
-718 -715 -289 0
715 -719 0
718 -719 0
-715 -718 719 0
185 -720 0
81 -720 0
-185 -81 720 0
-719 717 0
-720 717 0
719 720 -717 0
82 186 -722 0
-82 186 722 0
82 -186 722 0
-82 -186 -722 0
722 717 -290 0
-722 717 290 0
722 -717 290 0
-722 -717 -290 0
717 -723 0
722 -723 0
-717 -722 723 0
186 -724 0
82 -724 0
-186 -82 724 0
-723 721 0
-724 721 0
723 724 -721 0
83 187 -726 0
-83 187 726 0
83 -187 726 0
-83 -187 -726 0
726 721 -291 0
-726 721 291 0
726 -721 291 0
-726 -721 -291 0
721 -727 0
726 -727 0
-721 -726 727 0
187 -728 0
83 -728 0
-187 -83 728 0
-727 725 0
-728 725 0
727 728 -725 0
84 188 -729 0
-84 188 729 0
84 -188 729 0
-84 -188 -729 0
729 725 -292 0
-729 725 292 0
729 -725 292 0
-729 -725 -292 0
725 -730 0
729 -730 0
-725 -729 730 0
188 -731 0
84 -731 0
-188 -84 731 0
-730 716 0
-731 716 0
730 731 -716 0
718 -732 0
722 -732 0
726 -732 0
729 -732 0
-718 -722 -726 -729 732 0
731 -733 0
-731 733 0
715 -734 0
732 -734 0
-715 -732 734 0
-734 735 0
-716 735 0
734 716 -735 0
85 189 -738 0
-85 189 738 0
85 -189 738 0
-85 -189 -738 0
738 735 -293 0
-738 735 293 0
738 -735 293 0
-738 -735 -293 0
735 -739 0
738 -739 0
-735 -738 739 0
189 -740 0
85 -740 0
-189 -85 740 0
-739 737 0
-740 737 0
739 740 -737 0
86 190 -742 0
-86 190 742 0
86 -190 742 0
-86 -190 -742 0
742 737 -294 0
-742 737 294 0
742 -737 294 0
-742 -737 -294 0
737 -743 0
742 -743 0
-737 -742 743 0
190 -744 0
86 -744 0
-190 -86 744 0
-743 741 0
-744 741 0
743 744 -741 0
87 191 -746 0
-87 191 746 0
87 -191 746 0
-87 -191 -746 0
746 741 -295 0
-746 741 295 0
746 -741 295 0
-746 -741 -295 0
741 -747 0
746 -747 0
-741 -746 747 0
191 -748 0
87 -748 0
-191 -87 748 0
-747 745 0
-748 745 0
747 748 -745 0
88 192 -749 0
-88 192 749 0
88 -192 749 0
-88 -192 -749 0
749 745 -296 0
-749 745 296 0
749 -745 296 0
-749 -745 -296 0
745 -750 0
749 -750 0
-745 -749 750 0
192 -751 0
88 -751 0
-192 -88 751 0
-750 736 0
-751 736 0
750 751 -736 0
738 -752 0
742 -752 0
746 -752 0
749 -752 0
-738 -742 -746 -749 752 0
751 -753 0
-751 753 0
735 -754 0
752 -754 0
-735 -752 754 0
-754 755 0
-736 755 0
754 736 -755 0
89 193 -758 0
-89 193 758 0
89 -193 758 0
-89 -193 -758 0
758 755 -297 0
-758 755 297 0
758 -755 297 0
-758 -755 -297 0
755 -759 0
758 -759 0
-755 -758 759 0
193 -760 0
89 -760 0
-193 -89 760 0
-759 757 0
-760 757 0
759 760 -757 0
90 194 -762 0
-90 194 762 0
90 -194 762 0
-90 -194 -762 0
762 757 -298 0
-762 757 298 0
762 -757 298 0
-762 -757 -298 0
757 -763 0
762 -763 0
-757 -762 763 0
194 -764 0
90 -764 0
-194 -90 764 0
-763 761 0
-764 761 0
763 764 -761 0
91 195 -766 0
-91 195 766 0
91 -195 766 0
-91 -195 -766 0
766 761 -299 0
-766 761 299 0
766 -761 299 0
-766 -761 -299 0
761 -767 0
766 -767 0
-761 -766 767 0
195 -768 0
91 -768 0
-195 -91 768 0
-767 765 0
-768 765 0
767 768 -765 0
92 196 -769 0
-92 196 769 0
92 -196 769 0
-92 -196 -769 0
769 765 -300 0
-769 765 300 0
769 -765 300 0
-769 -765 -300 0
765 -770 0
769 -770 0
-765 -769 770 0
196 -771 0
92 -771 0
-196 -92 771 0
-770 756 0
-771 756 0
770 771 -756 0
758 -772 0
762 -772 0
766 -772 0
769 -772 0
-758 -762 -766 -769 772 0
771 -773 0
-771 773 0
755 -774 0
772 -774 0
-755 -772 774 0
-774 775 0
-756 775 0
774 756 -775 0
93 197 -778 0
-93 197 778 0
93 -197 778 0
-93 -197 -778 0
778 775 -301 0
-778 775 301 0
778 -775 301 0
-778 -775 -301 0
775 -779 0
778 -779 0
-775 -778 779 0
197 -780 0
93 -780 0
-197 -93 780 0
-779 777 0
-780 777 0
779 780 -777 0
94 198 -782 0
-94 198 782 0
94 -198 782 0
-94 -198 -782 0
782 777 -302 0
-782 777 302 0
782 -777 302 0
-782 -777 -302 0
777 -783 0
782 -783 0
-777 -782 783 0
198 -784 0
94 -784 0
-198 -94 784 0
-783 781 0
-784 781 0
783 784 -781 0
95 199 -786 0
-95 199 786 0
95 -199 786 0
-95 -199 -786 0
786 781 -303 0
-786 781 303 0
786 -781 303 0
-786 -781 -303 0
781 -787 0
786 -787 0
-781 -786 787 0
199 -788 0
95 -788 0
-199 -95 788 0
-787 785 0
-788 785 0
787 788 -785 0
96 200 -789 0
-96 200 789 0
96 -200 789 0
-96 -200 -789 0
789 785 -304 0
-789 785 304 0
789 -785 304 0
-789 -785 -304 0
785 -790 0
789 -790 0
-785 -789 790 0
200 -791 0
96 -791 0
-200 -96 791 0
-790 776 0
-791 776 0
790 791 -776 0
778 -792 0
782 -792 0
786 -792 0
789 -792 0
-778 -782 -786 -789 792 0
791 -793 0
-791 793 0
775 -794 0
792 -794 0
-775 -792 794 0
-794 795 0
-776 795 0
794 776 -795 0
97 201 -798 0
-97 201 798 0
97 -201 798 0
-97 -201 -798 0
798 795 -305 0
-798 795 305 0
798 -795 305 0
-798 -795 -305 0
795 -799 0
798 -799 0
-795 -798 799 0
201 -800 0
97 -800 0
-201 -97 800 0
-799 797 0
-800 797 0
799 800 -797 0
98 202 -802 0
-98 202 802 0
98 -202 802 0
-98 -202 -802 0
802 797 -306 0
-802 797 306 0
802 -797 306 0
-802 -797 -306 0
797 -803 0
802 -803 0
-797 -802 803 0
202 -804 0
98 -804 0
-202 -98 804 0
-803 801 0
-804 801 0
803 804 -801 0
99 203 -806 0
-99 203 806 0
99 -203 806 0
-99 -203 -806 0
806 801 -307 0
-806 801 307 0
806 -801 307 0
-806 -801 -307 0
801 -807 0
806 -807 0
-801 -806 807 0
203 -808 0
99 -808 0
-203 -99 808 0
-807 805 0
-808 805 0
807 808 -805 0
100 204 -809 0
-100 204 809 0
100 -204 809 0
-100 -204 -809 0
809 805 -308 0
-809 805 308 0
809 -805 308 0
-809 -805 -308 0
805 -810 0
809 -810 0
-805 -809 810 0
204 -811 0
100 -811 0
-204 -100 811 0
-810 796 0
-811 796 0
810 811 -796 0
798 -812 0
802 -812 0
806 -812 0
809 -812 0
-798 -802 -806 -809 812 0
811 -813 0
-811 813 0
795 -814 0
812 -814 0
-795 -812 814 0
-814 815 0
-796 815 0
814 796 -815 0
101 205 -818 0
-101 205 818 0
101 -205 818 0
-101 -205 -818 0
818 815 -309 0
-818 815 309 0
818 -815 309 0
-818 -815 -309 0
815 -819 0
818 -819 0
-815 -818 819 0
205 -820 0
101 -820 0
-205 -101 820 0
-819 817 0
-820 817 0
819 820 -817 0
102 206 -822 0
-102 206 822 0
102 -206 822 0
-102 -206 -822 0
822 817 -310 0
-822 817 310 0
822 -817 310 0
-822 -817 -310 0
817 -823 0
822 -823 0
-817 -822 823 0
206 -824 0
102 -824 0
-206 -102 824 0
-823 821 0
-824 821 0
823 824 -821 0
103 207 -826 0
-103 207 826 0
103 -207 826 0
-103 -207 -826 0
826 821 -311 0
-826 821 311 0
826 -821 311 0
-826 -821 -311 0
821 -827 0
826 -827 0
-821 -826 827 0
207 -828 0
103 -828 0
-207 -103 828 0
-827 825 0
-828 825 0
827 828 -825 0
104 208 -829 0
-104 208 829 0
104 -208 829 0
-104 -208 -829 0
829 825 -312 0
-829 825 312 0
829 -825 312 0
-829 -825 -312 0
825 -830 0
829 -830 0
-825 -829 830 0
208 -831 0
104 -831 0
-208 -104 831 0
-830 816 0
-831 816 0
830 831 -816 0
818 -832 0
822 -832 0
826 -832 0
829 -832 0
-818 -822 -826 -829 832 0
831 -833 0
-831 833 0
815 -834 0
832 -834 0
-815 -832 834 0
-834 835 0
-816 835 0
834 816 -835 0
835 -313 0
-835 313 0
